100
1000
200
199
199
199
199
198
198
197
196
196
196
195
195
194
193
193
192
192
192
191
191
191
190
189
189
188
187
186
184
184
184
184
183
183
182
182
181
181
181
180
180
180
180
179
179
178
178
178
177
177
177
176
173
172
171
171
171
170
168
168
168
168
167
167
167
167
166
166
165
164
164
164
163
162
162
162
162
161
161
160
160
160
160
160
159
159
159
159
159
158
157
156
155
154
153
152
151
150
150
150
